203 300 159 113 124 185 182 172 179 109 126 135 195 117 130 177 158 199 105 134 184 168 188 186 144 113 123 160 183 182 146 118 185 105 131 176 156 179 147 135 188 139 170 148 122 167 124 146 165 197 181 148 130 134 133 174 113 122 133 196 103 145 181 155 150 111 130 106 191 143 107 144 148 177 159 171 143 183 116 174 179 163 121 175 163 121 148 143 109 147 104 180 193 185 134 108 163 130 181 153 173 188 163 120 131 121 157 174 171 140 148 115 169 135 191 132 122 138 175 132 152 145 178 110 130 111 118 193 141 200 111 180 153 140 166 184 162 123 158 199 163 172 113 198 173 103 129 196 108 170 194 126 115 171 136 111 148 154 103 155 119 114 100 173 154 166 156 182 155 180 180 184 117 160 182 191 163 110 152 137 147 145 163 128 182 199 139 196 119 108 150 138 122 116 110 142 182 133 191 137 112 136 120 130 196 